NAME: Random_60_3
ELLAPSED_TIME_(ms): 0
TOUR_SIZE: 1541.4958
TOUR_SECTION
0
23
5
57
25
6
48
54
3
4
30
31
2
34
50
1
26
58
49
19
12
53
13
32
43
22
17
14
33
52
21
16
24
11
29
27
9
45
37
44
7
35
36
47
15
56
28
8
59
55
18
20
46
51
41
10
38
39
40
42
0
EOF
